(declare-fun _substvar_2844_ () (Array (Array Bool Bool) Bool))
(declare-fun _substvar_2855_ () (Array (Array Bool Bool) Bool))
(declare-fun _substvar_3529_ () (Array Bool Bool))
(declare-fun _substvar_3633_ () Bool)
(declare-fun _substvar_3701_ () Bool)
(declare-fun _substvar_3807_ () Int)
(declare-fun _substvar_3837_ () (Array (Array Bool Bool) Bool))
(declare-const v4 Bool)
(declare-const v5 Bool)
(declare-const v7 Bool)
(declare-const v13 Bool)
(declare-const v17 Bool)
(declare-const arr-1294077789577626735_1294077789577626735-0 (Array Bool Bool))
(declare-const arr--5562727356021226135_1294077789577626735-0 (Array (Array Bool Bool) Bool))
(declare-const arr--695103317364534838_7687647982851592275-0 (Array Int (Array (Array Bool Bool) Bool)))
(declare-const arr-7687647982851592275_7687647982851592275-0 (Array (Array (Array Bool Bool) Bool) (Array (Array Bool Bool) Bool)))
(declare-const v21 Bool)
(assert (and (= (store arr-1294077789577626735_1294077789577626735-0 v4 v5) arr-1294077789577626735_1294077789577626735-0) (=> v7 v13)))
(assert (or (distinct _substvar_2844_ arr--5562727356021226135_1294077789577626735-0 (select (store arr-7687647982851592275_7687647982851592275-0 _substvar_2855_ (store (select (store arr--695103317364534 838 _7687647982851592275-0 60 arr--5562727356021226135_1294077789577626735-0) _substvar_3807_) (store _substvar_3529_ v17 true) v21)) _substvar_3837_) (select arr--695103317364534838_7687647982851592275-0 98)) _substvar_3701_ _substvar_3633_))
(check-sat)
(assert true)
(check-sat)
